NAME: tsp15_11
COMMENT: 15-tsp problem (Padberg/Rinaldi)
TYPE: TSP
DIMENSION: 15
EDGE_WEIGHT_TYPE : EUC_2D
NODE_COORD_SECTION
1 33 16
2 23 39
3 14 37
4 12 32
5 1 29
6 30 33
7 4 39
8 28 22
9 21 1
10 37 15
11 14 32
12 21 34
13 33 25
14 13 9
15 10 14
